
(set-logic HORN)
(declare-fun S_630 (Int) Int)
(declare-fun Z_2736 () Int)
(declare-fun diseqInt (Int Int) Bool)
(declare-fun projS_253 (Int Int) Bool)
(declare-fun isS_566 (Int) Bool)
(declare-fun isZ_566 (Int) Bool)
(assert (forall ((x_126232 Int))
	(projS_253 x_126232 (S_630 x_126232))))
(assert (forall ((x_126235 Int))
	(isS_566 (S_630 x_126235))))
(assert (isZ_566 Z_2736))
(assert (forall ((x_126236 Int))
	(diseqInt (S_630 x_126236) Z_2736)))
(assert (forall ((x_126237 Int))
	(diseqInt Z_2736 (S_630 x_126237))))
(assert (forall ((x_126238 Int) (x_126239 Int))
	(=> (diseqInt x_126238 x_126239) (diseqInt (S_630 x_126238) (S_630 x_126239)))))
(declare-datatypes ((list_399 0)) (((nil_459) (cons_393 (head_786 Int) (tail_792 list_399)))))
(declare-fun diseqlist_393 (list_399 list_399) Bool)
(declare-fun head_787 (Int list_399) Bool)
(declare-fun tail_793 (list_399 list_399) Bool)
(declare-fun isnil_459 (list_399) Bool)
(declare-fun iscons_393 (list_399) Bool)
(assert (forall ((x_126241 Int) (x_126242 list_399))
	(head_787 x_126241 (cons_393 x_126241 x_126242))))
(assert (forall ((x_126241 Int) (x_126242 list_399))
	(tail_793 x_126242 (cons_393 x_126241 x_126242))))
(assert (isnil_459 nil_459))
(assert (forall ((x_126244 Int) (x_126245 list_399))
	(iscons_393 (cons_393 x_126244 x_126245))))
(assert (forall ((x_126246 Int) (x_126247 list_399))
	(diseqlist_393 nil_459 (cons_393 x_126246 x_126247))))
(assert (forall ((x_126248 Int) (x_126249 list_399))
	(diseqlist_393 (cons_393 x_126248 x_126249) nil_459)))
(assert (forall ((x_126250 Int) (x_126251 list_399) (x_126252 Int) (x_126253 list_399))
	(=> (diseqInt x_126250 x_126252) (diseqlist_393 (cons_393 x_126250 x_126251) (cons_393 x_126252 x_126253)))))
(assert (forall ((x_126250 Int) (x_126251 list_399) (x_126252 Int) (x_126253 list_399))
	(=> (diseqlist_393 x_126251 x_126253) (diseqlist_393 (cons_393 x_126250 x_126251) (cons_393 x_126252 x_126253)))))
(declare-fun length_70 (Int list_399) Bool)
(assert (forall ((x_126223 Int) (y_3200 Int) (xs_893 list_399))
	(=> (length_70 x_126223 xs_893) (length_70 (S_630 x_126223) (cons_393 y_3200 xs_893)))))
(assert (length_70 Z_2736 nil_459))
(declare-fun x_126220 (list_399 list_399 list_399) Bool)
(assert (forall ((x_126226 list_399) (z_2737 Int) (xs_894 list_399) (y_3201 list_399))
	(=> (x_126220 x_126226 xs_894 y_3201) (x_126220 (cons_393 z_2737 x_126226) (cons_393 z_2737 xs_894) y_3201))))
(assert (forall ((x_126227 list_399))
	(x_126220 x_126227 nil_459 x_126227)))
(assert (forall ((x_126228 list_399) (x_126229 Int) (x_126230 Int) (xs_895 list_399) (ys_244 list_399))
	(=> (and true (diseqInt x_126229 x_126230) (x_126220 x_126228 xs_895 ys_244) (length_70 x_126229 x_126228) (length_70 x_126230 xs_895)) false)))
(check-sat)
